W=6;
H=3;

MAX_TIME=11;
MAX_TRACKS=10;

TARGET=(1,6);

TRAINS=[(3,1,TOP)];

INIT_POS=[
(1,4,EMPTY),
(1,6,STRAIGHT_RL),
(2,2,EMPTY),
(2,4,EMPTY),
(2,6,EMPTY),
(3,1,STRAIGHT_TD),
(3,2,EMPTY),
(3,6,EMPTY),
];
TUNNEL_PAIRS=[];

GATES=[];
ACTIVATIONS=[];

DSWITCHES=[];

STATIONS=[];
